100
1000
209
207
205
205
203
202
202
201
199
195
193
192
192
191
187
184
183
182
178
177
175
171
164
162
155
154
153
152
150
148
146
144
144
142
136
135
134
134
132
127
127
125
124
123
122
120
119
114
107
104
96
96
94
94
93
89
87
86
86
84
83
82
81
81
78
77
77
76
75
70
67
67
64
57
56
51
47
46
42
41
41
41
41
41
40
40
40
39
38
35
32
31
27
25
23
23
23
17
17
14
